h=8;
w=8;
left=[26, 17, 8, 18, 0, 0, 0, 17];
right=[0, 17, 0, 24, 0, 14, 13, 0];
top=[13, 15, 28, 14, 15, 0, 0, 0];
down=[25, 20, 0, 15, 0, 26, 14, 29];
b=[|0,1,0,0,0,0,0,0|0,0,0,1,0,8,0,0|8,2,0,0,6,5,0,0|0,0,0,0,0,0,5,0|0,0,0,0,4,0,0,0|2,4,0,0,8,0,0,0|0,7,0,0,0,0,8,0|0,0,0,0,0,0,0,0|]